lsc.out
z = 853945

:     x     s     :=
0     .      0
1    134     0
2    156    38
3      0     5
4    180     0
5    147     0
6    144     0
7    124     1
8    180     0
9     47     0
10    74     0
11    16     0
12   180    65
13   151   107
14     0     0
15   109     0
16   180    54
17   180    59
18    85     0
19   122     0
20    70     0
21   135     0
22   176     0
23   174     0
24    31     0
25   115     0
26   170     0
27   108     0
28   170    17
29     0     0
30   149     0
31   148     0
32   120    73
33     0     0
34   149     0
35   161     0
36   180   134
37    45     0
38    57    40
39     0     0
40   121     0
41   180   140
42    15     0
43   180    64
44    25     0
45    46     0
46   117    80
47     0     0
48    38     0
49   180    94
50     0     0
51   180    66
52   109    81
53     0     0
54    76     0
55   165     0
56   100     0
57   180    31
58    41     0
59   163   102
60     0     0
61    26     0
62   100     0
63    24     0
64   180    49
65    50     0
66    91     0
67    96    76
68     0     0
69   180    76
70    36     0
71   180    20
72   122   105
73     0     0
74   180   117
75    42     0
76    39     0
77   180    36
78    26     0
79   180     9
80    47     0
81    68     0
82   150   104
83     0     0
84    40     0
85    76    61
86     0     0
87   101     5
88   180     0
89   133     0
90    22     0
;

:  production_limit.up production_limit.current production_limit.down    :=
1          1e+20                  180                     134
2          1e+20                  180                     156
3          1e+20                  180                       0
4            185                  180                     156
5          1e+20                  180                     147
6          1e+20                  180                     144
7          1e+20                  180                     124
8            181                  180                     124
9          1e+20                  180                      47
10         1e+20                  180                      74
11         1e+20                  180                      16
12           331                  180                     151
13         1e+20                  180                     151
14         1e+20                  180                       0
15         1e+20                  180                     109
16           265                  180                     126
17           265                  180                     121
18         1e+20                  180                      85
19         1e+20                  180                     122
20         1e+20                  180                      70
21         1e+20                  180                     135
22         1e+20                  180                     176
23         1e+20                  180                     174
24         1e+20                  180                      31
25         1e+20                  180                     115
26         1e+20                  180                     170
27         1e+20                  180                     108
28         1e+20                  180                     170
29         1e+20                  180                       0
30         1e+20                  180                     149
31         1e+20                  180                     148
32         1e+20                  180                     120
33         1e+20                  180                       0
34         1e+20                  180                     149
35         1e+20                  180                     161
36           225                  180                      46
37         1e+20                  180                      45
38         1e+20                  180                      57
39         1e+20                  180                       0
40         1e+20                  180                     121
41           195                  180                      40
42         1e+20                  180                      15
43           205                  180                     116
44         1e+20                  180                      25
45         1e+20                  180                      46
46         1e+20                  180                     117
47         1e+20                  180                       0
48         1e+20                  180                      38
49           180                  180                      38
50         1e+20                  180                       0
51           289                  180                     114
52         1e+20                  180                     109
53         1e+20                  180                       0
54         1e+20                  180                      76
55         1e+20                  180                     165
56         1e+20                  180                     100
57           221                  180                     149
58         1e+20                  180                      41
59         1e+20                  180                     163
60         1e+20                  180                       0
61         1e+20                  180                      26
62         1e+20                  180                     100
63         1e+20                  180                      24
64           230                  180                     131
65         1e+20                  180                      50
66         1e+20                  180                      91
67         1e+20                  180                      96
68         1e+20                  180                       0
69           216                  180                     104
70         1e+20                  180                      36
71           302                  180                     160
72         1e+20                  180                     122
73         1e+20                  180                       0
74           222                  180                      63
75         1e+20                  180                      42
76         1e+20                  180                      39
77           206                  180                     144
78         1e+20                  180                      26
79           227                  180                     171
80         1e+20                  180                      47
81         1e+20                  180                      68
82         1e+20                  180                     150
83         1e+20                  180                       0
84         1e+20                  180                      40
85         1e+20                  180                      76
86         1e+20                  180                       0
87         1e+20                  180                     101
88           185                  180                     101
89         1e+20                  180                     133
90         1e+20                  180                      22
;

